instances/knapsack/discrete/knapsack_120_8.kp
65213
120
561

3 0.3 56
80 8.0 16
78 7.8 78
11 1.1 30
80 8.0 67
65 6.5 99
41 4.1 19
39 3.9 57
93 9.3 40
90 9.0 24
71 7.1 89
31 3.1 73
64 6.4 97
44 4.4 44
84 8.4 93
80 8.0 62
41 4.1 44
24 2.4 88
85 8.5 56
98 9.8 75
33 3.3 79
71 7.1 49
88 8.8 90
34 3.4 82
36 3.6 67
72 7.2 36
70 7.0 46
99 9.9 1
21 2.1 48
31 3.1 98
1 0.1 79
3 0.3 54
63 6.3 54
21 2.1 61
72 7.2 89
41 4.1 35
88 8.8 95
8 0.8 37
80 8.0 68
54 5.4 9
7 0.7 58
29 2.9 15
54 5.4 59
37 3.7 61
11 1.1 32
54 5.4 69
65 6.5 98
13 1.3 6
27 2.7 18
16 1.6 11
94 9.4 81
24 2.4 20
13 1.3 21
40 4.0 51
12 1.2 14
63 6.3 44
1 0.1 16
42 4.2 98
84 8.4 26
58 5.8 65
72 7.2 22
2 0.2 36
35 3.5 11
86 8.6 95
51 5.1 84
52 5.2 35
72 7.2 95
34 3.4 19
60 6.0 94
77 7.7 91
53 5.3 43
61 6.1 17
74 7.4 71
3 0.3 63
31 3.1 64
76 7.6 56
98 9.8 72
11 1.1 67
80 8.0 38
30 3.0 45
9 0.9 13
69 6.9 16
22 2.2 71
37 3.7 40
49 4.9 71
77 7.7 30
55 5.5 48
8 0.8 97
66 6.6 18
35 3.5 36
44 4.4 96
84 8.4 99
24 2.4 99
75 7.5 54
16 1.6 38
85 8.5 12
61 6.1 19
44 4.4 78
64 6.4 34
24 2.4 66
69 6.9 18
20 2.0 39
46 4.6 100
36 3.6 71
93 9.3 21
22 2.2 37
11 1.1 44
22 2.2 94
46 4.6 44
17 1.7 54
58 5.8 75
83 8.3 40
77 7.7 51
73 7.3 65
1 0.1 56
50 5.0 39
39 3.9 81
69 6.9 91
45 4.5 28
84 8.4 57

34887
512

[1.26 3.93 0.59 0.07 3.16 1.76 2.38 1.96 4.07 4.06 3.51 3.83 0.76 2.06 3.59 2.25 2.91 0.1 3.95 0.84 2.77 4.02 0.33 2.22 3.52 2.41 2.68 2.35 4.01 0.65 2.07 0.91 0.05 0.75 1.55 0.15 4.14 0.79 0.23 3.48 0.16 0.2 0.59 3.49 2.59 0.28 1.36 2.55 1.5 0.41 2.93 3.73 1.09 1.9 3.9 2.01 2.77 1.44 0.48 0.45 2.94 0.76 0.65 2.75 4.24 1.54 2.26 1.02 0.83 2.54 2.69 2.79 2.98 1.65 3.61 0.43 2.95 3.4 3.93 2.95 0.23 3.85 3.11 2.17 0.54 0.08 3.18 3.1 0.87 4.07 0.18 3.45 2.13 3.36 2.5 1.65 3.77 1.46 2.86 1.83 0.48 1.5 2.93 3.43 0.04 1.05 3.76 1.31 3.1 1.38 2.13 0.79 3.72 2.1 2.16 0.15 2.76 0.59 0.46 0.63]

[72 57 43 88 29 2 2 60 6 3 56 24 49 49 21 41 34 97 46 91 6 24 85 67 21 21 7 44 46 44 38 64 68 74 49 22 9 53 29 79 24 2 55 18 84 59 2 94 52 53 83 17 46 33 97 40 90 19 89 83 5 43 44 19 20 57 41 31 81 58 82 30 15 12 32 21 87 56 65 3 42 6 79 10 50 90 76 41 63 60 29 81 33 8 25 70 10 41 53 49 82 13 11 85 22 63 20 79 55 90 59 80 10 58 34 3 28 6 54 49]
