instances/knapsack/discrete/knapsack_120_8.lp
\ Model knapsack_120_8
\ LP format - for model browsing. Use MPS format to capture full model detail.
\ Signature: 0x89f048c0c90eaa9
Minimize
  - 61 x[0] - 21 x[1] - 35 x[2] - 91 x[3] - 60 x[4] - 52 x[5] - 48 x[6]
   - 46 x[7] - 77 x[8] - 89 x[9] - 90 x[10] - 50 x[11] - 38 x[12] - x[13]
   - 70 x[14] - 87 x[15] - 25 x[16] - 5 x[17] - 21 x[18] - 48 x[19]
   - 64 x[20] - 58 x[21] - 7 x[22] - 43 x[23] - 24 x[24] - 33 x[25]
   - 95 x[26] - 2 x[27] - 61 x[28] - 79 x[29] - 72 x[30] - 55 x[31]
   - 79 x[32] - 66 x[33] - 54 x[34] - 36 x[35] - 48 x[36] - 30 x[37]
   - 69 x[38] - 74 x[39] - 95 x[40] - 56 x[41] - 44 x[42] - 2 x[43]
   - 17 x[44] - 66 x[45] - 79 x[46] - 51 x[47] - 43 x[48] - 28 x[49]
   - 78 x[50] - 89 x[51] - 30 x[52] - 84 x[53] - 59 x[54] - 85 x[55]
   - 25 x[56] - 87 x[57] - 79 x[58] - 78 x[59] - 75 x[60] - 53 x[61]
   - 68 x[62] - 72 x[63] - 77 x[64] - 12 x[65] - 56 x[66] - 80 x[67]
   - 75 x[68] - 88 x[69] - 48 x[70] - 94 x[71] - 44 x[72] - 24 x[73]
   - 37 x[74] - 21 x[75] - 33 x[76] - 20 x[77] - 55 x[78] - 18 x[79]
   - 74 x[80] - 41 x[81] - 80 x[82] - 77 x[83] - 96 x[84] - 7 x[85]
   - 45 x[86] - 74 x[87] - 99 x[88] - 61 x[89] - 45 x[90] - 28 x[91]
   - 80 x[92] - 11 x[93] - 83 x[94] - 5 x[95] - 4 x[96] - 27 x[97]
   - 43 x[98] - 27 x[99] - 79 x[100] - 60 x[101] - 97 x[102] - 56 x[103]
   - 18 x[104] - 70 x[105] - 25 x[106] - 63 x[107] - 13 x[108] - 55 x[109]
   - 72 x[110] - x[111] - 8 x[112] - 18 x[113] - 37 x[114] - 76 x[115]
   - 42 x[116] - 8 x[117] - 57 x[118] - 86 x[119]
Subject To
 primal_upper: 36 x[0] + 5 x[1] + 55 x[2] + 28 x[3] + 49 x[4] + 22 x[5]
   + 30 x[6] + 72 x[7] + 18 x[8] + 83 x[9] + 88 x[10] + 88 x[11] + 69 x[12]
   + 93 x[13] + 73 x[14] + 93 x[15] + 34 x[16] + 81 x[17] + 26 x[18]
   + 75 x[19] + 90 x[20] + 48 x[21] + 77 x[22] + 11 x[23] + 41 x[24]
   + 45 x[25] + 39 x[26] + 28 x[27] + 94 x[28] + 52 x[29] + 38 x[30]
   + 20 x[31] + 100 x[32] + 26 x[33] + 69 x[34] + 62 x[35] + 21 x[36]
   + 21 x[37] + x[38] + 83 x[39] + 76 x[40] + 2 x[41] + 55 x[42] + 78 x[43]
   + 36 x[44] + 79 x[45] + 90 x[46] + 22 x[47] + 32 x[48] + 69 x[49]
   + 71 x[50] + 69 x[51] + 90 x[52] + 41 x[53] + 17 x[54] + 12 x[55]
   + 26 x[56] + 27 x[57] + 49 x[58] + 67 x[59] + 49 x[60] + 3 x[61]
   + 32 x[62] + 47 x[63] + 64 x[64] + 45 x[65] + 17 x[66] + 35 x[67]
   + 73 x[68] + 6 x[69] + 22 x[70] + 22 x[71] + 59 x[72] + 80 x[73]
   + 28 x[74] + 57 x[75] + 23 x[76] + 48 x[77] + 57 x[78] + 91 x[79]
   + 6 x[80] + 6 x[81] + 67 x[82] + 98 x[83] + 38 x[84] + 98 x[85]
   + 80 x[86] + 17 x[87] + 55 x[88] + 40 x[89] + 13 x[90] + 5 x[91] + x[92]
   + 88 x[93] + 33 x[94] + 22 x[95] + 98 x[96] + 13 x[97] + 85 x[98]
   + 85 x[99] + 78 x[100] + 69 x[101] + 55 x[102] + 85 x[103] + 50 x[104]
   + 83 x[105] + 100 x[106] + 3 x[107] + 23 x[108] + 30 x[109] + 43 x[110]
   + 64 x[111] + 98 x[112] + 46 x[113] + 82 x[114] + 35 x[115] + 48 x[116]
   + 34 x[117] + 86 x[118] + 33 x[119] + 3.6 r[0] + 0.5 r[1] + 5.5 r[2]
   + 2.8 r[3] + 4.9 r[4] + 2.2 r[5] + 3 r[6] + 7.2 r[7] + 1.8 r[8]
   + 8.3 r[9] + 8.8 r[10] + 8.8 r[11] + 6.9 r[12] + 9.3 r[13] + 7.3 r[14]
   + 9.3 r[15] + 3.4 r[16] + 8.1 r[17] + 2.6 r[18] + 7.5 r[19] + 9 r[20]
   + 4.8 r[21] + 7.7 r[22] + 1.1 r[23] + 4.1 r[24] + 4.5 r[25] + 3.9 r[26]
   + 2.8 r[27] + 9.4 r[28] + 5.2 r[29] + 3.8 r[30] + 2 r[31] + 10 r[32]
   + 2.6 r[33] + 6.9 r[34] + 6.2 r[35] + 2.1 r[36] + 2.1 r[37] + 0.1 r[38]
   + 8.3 r[39] + 7.6 r[40] + 0.2 r[41] + 5.5 r[42] + 7.8 r[43] + 3.6 r[44]
   + 7.9 r[45] + 9 r[46] + 2.2 r[47] + 3.2 r[48] + 6.9 r[49] + 7.1 r[50]
   + 6.9 r[51] + 9 r[52] + 4.1 r[53] + 1.7 r[54] + 1.2 r[55] + 2.6 r[56]
   + 2.7 r[57] + 4.9 r[58] + 6.7 r[59] + 4.9 r[60] + 0.3 r[61] + 3.2 r[62]
   + 4.7 r[63] + 6.4 r[64] + 4.5 r[65] + 1.7 r[66] + 3.5 r[67] + 7.3 r[68]
   + 0.6 r[69] + 2.2 r[70] + 2.2 r[71] + 5.9 r[72] + 8 r[73] + 2.8 r[74]
   + 5.7 r[75] + 2.3 r[76] + 4.8 r[77] + 5.7 r[78] + 9.1 r[79] + 0.6 r[80]
   + 0.6 r[81] + 6.7 r[82] + 9.8 r[83] + 3.8 r[84] + 9.8 r[85] + 8 r[86]
   + 1.7 r[87] + 5.5 r[88] + 4 r[89] + 1.3 r[90] + 0.5 r[91] + 0.1 r[92]
   + 8.8 r[93] + 3.3 r[94] + 2.2 r[95] + 9.8 r[96] + 1.3 r[97] + 8.5 r[98]
   + 8.5 r[99] + 7.8 r[100] + 6.9 r[101] + 5.5 r[102] + 8.5 r[103]
   + 5 r[104] + 8.3 r[105] + 10 r[106] + 0.3 r[107] + 2.3 r[108] + 3 r[109]
   + 4.3 r[110] + 6.4 r[111] + 9.8 r[112] + 4.6 r[113] + 8.2 r[114]
   + 3.5 r[115] + 4.8 r[116] + 3.4 r[117] + 8.6 r[118] + 3.3 r[119] <= 575
 primal_lower: 5.182250807659086 x[0] + 3.121633027270194 x[1]
   + 2.748748667480756 x[2] + 2.907588990706755 x[3]
   + 0.5857440156228528 x[4] + 4.28967736536404 x[5]
   + 4.287236750044807 x[6] + 4.334099228947373 x[7]
   + 4.93729634286893 x[8] + 0.7690899682614563 x[9]
   + 1.760118250268131 x[10] + 4.847243356078892 x[11]
   + 2.214098297817568 x[12] + 1.774021070352849 x[13]
   + 2.079264937118591 x[14] + 4.268294246891831 x[15]
   + 0.4202006906423044 x[16] + 0.8367037237087227 x[17]
   + 2.98875174033168 x[18] + 4.229541161661515 x[19]
   + 4.928446056116797 x[20] + 3.041095931103102 x[21]
   + 1.990369830435115 x[22] + 2.519525062045179 x[23]
   + 1.87355294010186 x[24] + 2.000988004470565 x[25]
   + 2.014128102539355 x[26] + 1.2825632521659 x[27]
   + 4.493923972132857 x[28] + 1.214467977754697 x[29]
   + 2.432015845533661 x[30] + 0.6051360553574195 x[31]
   + 0.2240110585731153 x[32] + 4.317272777604681 x[33]
   + 2.01021989532259 x[34] + 3.265153727974246 x[35]
   + 3.290721232019673 x[36] + 3.639426048151595 x[37]
   + 0.9630063232983181 x[38] + 1.269216303152439 x[39]
   + 4.476515327290096 x[40] + 0.9249098602169954 x[41]
   + 0.133169801472816 x[42] + 4.73681126098301 x[43]
   + 2.372906078890978 x[44] + 1.23484129515737 x[45]
   + 2.972598016052217 x[46] + 4.739365266701056 x[47]
   + 3.844757550353963 x[48] + 3.665926401978479 x[49]
   + 2.647633438094727 x[50] + 5.019993357627097 x[51]
   + 3.773046356601869 x[52] + 0.0900336499543416 x[53]
   + 2.101140776791025 x[54] + 3.370758764979295 x[55]
   + 4.247690969906522 x[56] + 3.112758527036597 x[57]
   + 3.503350520039552 x[58] + 2.80263244467838 x[59]
   + 3.871919331812559 x[60] + 1.303469073826173 x[61]
   + 3.593847102472952 x[62] + 4.994798590968162 x[63]
   + 0.6700272986603695 x[64] + 0.6366397855124066 x[65]
   + 2.181564207479751 x[66] + 3.982076134562305 x[67]
   + 4.167134976521992 x[68] + 3.2289997511497 x[69]
   + 0.1143124677020041 x[70] + 2.166027449249352 x[71]
   + 1.890742196625554 x[72] + 1.073964143065455 x[73]
   + 4.062290454523104 x[74] + 2.068649247530284 x[75]
   + 1.261797609363257 x[76] + 4.358733174193257 x[77]
   + 5.082363858230038 x[78] + 4.454549700226 x[79]
   + 4.508322608161975 x[80] + 2.11913481500838 x[81]
   + 0.0925422202933736 x[82] + 5.143853908983886 x[83]
   + 3.848164171821193 x[84] + 1.82934781320455 x[85]
   + 2.95564771674574 x[86] + 2.839611419876189 x[87]
   + 1.085244916894983 x[88] + 2.675073225777442 x[89]
   + 4.448104461615338 x[90] + 4.858696624343541 x[91]
   + 0.2382984940102388 x[92] + 4.841676775484467 x[93]
   + 1.376633135604215 x[94] + 1.653131083411702 x[95]
   + 1.599908262500214 x[96] + 2.648368293904027 x[97]
   + 4.071212474040924 x[98] + 2.138019465216826 x[99]
   + 2.449848790438607 x[100] + 0.2024588178194336 x[101]
   + 3.338242098982083 x[102] + 3.769082640227375 x[103]
   + 2.710711622222463 x[104] + 1.922375325823606 x[105]
   + 4.698279635974716 x[106] + 4.626474730934119 x[107]
   + 4.555008990413267 x[108] + 5.173716277046262 x[109]
   + 3.01196346744624 x[110] + 2.331187667445718 x[111]
   + 4.025236579404058 x[112] + 3.82850049880811 x[113]
   + 0.2748120010643895 x[114] + 1.38695398925552 x[115]
   + 5.01581953420424 x[116] + 4.762857850556818 x[117]
   + 1.782321993525466 x[118] + 0.7843600489081185 x[119] + 14 u[0]
   + 71 u[1] + u[2] + 22 u[3] + 99 u[4] + 72 u[5] + 56 u[6] + 86 u[7]
   + 56 u[8] + u[9] + 70 u[10] + 22 u[11] + 91 u[12] + 91 u[13] + 43 u[14]
   + 35 u[15] + 64 u[16] + 31 u[17] + 92 u[18] + 41 u[19] + 88 u[20]
   + 14 u[21] + 95 u[22] + 5 u[23] + 63 u[24] + 55 u[25] + 17 u[26]
   + 74 u[27] + 52 u[28] + 46 u[29] + 36 u[30] + 54 u[31] + 78 u[32]
   + 52 u[33] + 39 u[34] + 40 u[35] + 99 u[36] + 3 u[37] + 23 u[38]
   + 57 u[39] + 58 u[40] + 52 u[41] + 5 u[42] + 100 u[43] + 30 u[44]
   + 57 u[45] + 100 u[46] + 80 u[47] + 94 u[48] + 67 u[49] + 21 u[50]
   + 79 u[51] + 100 u[52] + 55 u[53] + 31 u[54] + 78 u[55] + 92 u[56]
   + 73 u[57] + 51 u[58] + 77 u[59] + 95 u[60] + 49 u[61] + 58 u[62]
   + 13 u[63] + 70 u[64] + 19 u[65] + 75 u[66] + 29 u[67] + 71 u[68]
   + 32 u[69] + 20 u[70] + 76 u[71] + 77 u[72] + 90 u[73] + 66 u[74]
   + 35 u[75] + 73 u[76] + 34 u[77] + 67 u[78] + 17 u[79] + 68 u[80]
   + 44 u[81] + 97 u[82] + 36 u[83] + 64 u[84] + 68 u[85] + 82 u[86]
   + 3 u[87] + 93 u[88] + 82 u[89] + 15 u[90] + 15 u[91] + 71 u[92]
   + 34 u[93] + 91 u[94] + 40 u[95] + 60 u[96] + 19 u[97] + 75 u[98]
   + 63 u[99] + 60 u[100] + 67 u[101] + 21 u[102] + 27 u[103] + 60 u[104]
   + u[105] + 38 u[106] + 45 u[107] + 77 u[108] + 24 u[109] + 73 u[110]
   + 70 u[111] + 100 u[112] + 96 u[113] + 20 u[114] + 97 u[115] + 66 u[116]
   + 48 u[117] + 96 u[118] + 15 u[119] <= 38219
 mccormick1[0]: - u[0] + r[0] <= 0
 mccormick1[1]: - u[1] + r[1] <= 0
 mccormick1[2]: - u[2] + r[2] <= 0
 mccormick1[3]: - u[3] + r[3] <= 0
 mccormick1[4]: - u[4] + r[4] <= 0
 mccormick1[5]: - u[5] + r[5] <= 0
 mccormick1[6]: - u[6] + r[6] <= 0
 mccormick1[7]: - u[7] + r[7] <= 0
 mccormick1[8]: - u[8] + r[8] <= 0
 mccormick1[9]: - u[9] + r[9] <= 0
 mccormick1[10]: - u[10] + r[10] <= 0
 mccormick1[11]: - u[11] + r[11] <= 0
 mccormick1[12]: - u[12] + r[12] <= 0
 mccormick1[13]: - u[13] + r[13] <= 0
 mccormick1[14]: - u[14] + r[14] <= 0
 mccormick1[15]: - u[15] + r[15] <= 0
 mccormick1[16]: - u[16] + r[16] <= 0
 mccormick1[17]: - u[17] + r[17] <= 0
 mccormick1[18]: - u[18] + r[18] <= 0
 mccormick1[19]: - u[19] + r[19] <= 0
 mccormick1[20]: - u[20] + r[20] <= 0
 mccormick1[21]: - u[21] + r[21] <= 0
 mccormick1[22]: - u[22] + r[22] <= 0
 mccormick1[23]: - u[23] + r[23] <= 0
 mccormick1[24]: - u[24] + r[24] <= 0
 mccormick1[25]: - u[25] + r[25] <= 0
 mccormick1[26]: - u[26] + r[26] <= 0
 mccormick1[27]: - u[27] + r[27] <= 0
 mccormick1[28]: - u[28] + r[28] <= 0
 mccormick1[29]: - u[29] + r[29] <= 0
 mccormick1[30]: - u[30] + r[30] <= 0
 mccormick1[31]: - u[31] + r[31] <= 0
 mccormick1[32]: - u[32] + r[32] <= 0
 mccormick1[33]: - u[33] + r[33] <= 0
 mccormick1[34]: - u[34] + r[34] <= 0
 mccormick1[35]: - u[35] + r[35] <= 0
 mccormick1[36]: - u[36] + r[36] <= 0
 mccormick1[37]: - u[37] + r[37] <= 0
 mccormick1[38]: - u[38] + r[38] <= 0
 mccormick1[39]: - u[39] + r[39] <= 0
 mccormick1[40]: - u[40] + r[40] <= 0
 mccormick1[41]: - u[41] + r[41] <= 0
 mccormick1[42]: - u[42] + r[42] <= 0
 mccormick1[43]: - u[43] + r[43] <= 0
 mccormick1[44]: - u[44] + r[44] <= 0
 mccormick1[45]: - u[45] + r[45] <= 0
 mccormick1[46]: - u[46] + r[46] <= 0
 mccormick1[47]: - u[47] + r[47] <= 0
 mccormick1[48]: - u[48] + r[48] <= 0
 mccormick1[49]: - u[49] + r[49] <= 0
 mccormick1[50]: - u[50] + r[50] <= 0
 mccormick1[51]: - u[51] + r[51] <= 0
 mccormick1[52]: - u[52] + r[52] <= 0
 mccormick1[53]: - u[53] + r[53] <= 0
 mccormick1[54]: - u[54] + r[54] <= 0
 mccormick1[55]: - u[55] + r[55] <= 0
 mccormick1[56]: - u[56] + r[56] <= 0
 mccormick1[57]: - u[57] + r[57] <= 0
 mccormick1[58]: - u[58] + r[58] <= 0
 mccormick1[59]: - u[59] + r[59] <= 0
 mccormick1[60]: - u[60] + r[60] <= 0
 mccormick1[61]: - u[61] + r[61] <= 0
 mccormick1[62]: - u[62] + r[62] <= 0
 mccormick1[63]: - u[63] + r[63] <= 0
 mccormick1[64]: - u[64] + r[64] <= 0
 mccormick1[65]: - u[65] + r[65] <= 0
 mccormick1[66]: - u[66] + r[66] <= 0
 mccormick1[67]: - u[67] + r[67] <= 0
 mccormick1[68]: - u[68] + r[68] <= 0
 mccormick1[69]: - u[69] + r[69] <= 0
 mccormick1[70]: - u[70] + r[70] <= 0
 mccormick1[71]: - u[71] + r[71] <= 0
 mccormick1[72]: - u[72] + r[72] <= 0
 mccormick1[73]: - u[73] + r[73] <= 0
 mccormick1[74]: - u[74] + r[74] <= 0
 mccormick1[75]: - u[75] + r[75] <= 0
 mccormick1[76]: - u[76] + r[76] <= 0
 mccormick1[77]: - u[77] + r[77] <= 0
 mccormick1[78]: - u[78] + r[78] <= 0
 mccormick1[79]: - u[79] + r[79] <= 0
 mccormick1[80]: - u[80] + r[80] <= 0
 mccormick1[81]: - u[81] + r[81] <= 0
 mccormick1[82]: - u[82] + r[82] <= 0
 mccormick1[83]: - u[83] + r[83] <= 0
 mccormick1[84]: - u[84] + r[84] <= 0
 mccormick1[85]: - u[85] + r[85] <= 0
 mccormick1[86]: - u[86] + r[86] <= 0
 mccormick1[87]: - u[87] + r[87] <= 0
 mccormick1[88]: - u[88] + r[88] <= 0
 mccormick1[89]: - u[89] + r[89] <= 0
 mccormick1[90]: - u[90] + r[90] <= 0
 mccormick1[91]: - u[91] + r[91] <= 0
 mccormick1[92]: - u[92] + r[92] <= 0
 mccormick1[93]: - u[93] + r[93] <= 0
 mccormick1[94]: - u[94] + r[94] <= 0
 mccormick1[95]: - u[95] + r[95] <= 0
 mccormick1[96]: - u[96] + r[96] <= 0
 mccormick1[97]: - u[97] + r[97] <= 0
 mccormick1[98]: - u[98] + r[98] <= 0
 mccormick1[99]: - u[99] + r[99] <= 0
 mccormick1[100]: - u[100] + r[100] <= 0
 mccormick1[101]: - u[101] + r[101] <= 0
 mccormick1[102]: - u[102] + r[102] <= 0
 mccormick1[103]: - u[103] + r[103] <= 0
 mccormick1[104]: - u[104] + r[104] <= 0
 mccormick1[105]: - u[105] + r[105] <= 0
 mccormick1[106]: - u[106] + r[106] <= 0
 mccormick1[107]: - u[107] + r[107] <= 0
 mccormick1[108]: - u[108] + r[108] <= 0
 mccormick1[109]: - u[109] + r[109] <= 0
 mccormick1[110]: - u[110] + r[110] <= 0
 mccormick1[111]: - u[111] + r[111] <= 0
 mccormick1[112]: - u[112] + r[112] <= 0
 mccormick1[113]: - u[113] + r[113] <= 0
 mccormick1[114]: - u[114] + r[114] <= 0
 mccormick1[115]: - u[115] + r[115] <= 0
 mccormick1[116]: - u[116] + r[116] <= 0
 mccormick1[117]: - u[117] + r[117] <= 0
 mccormick1[118]: - u[118] + r[118] <= 0
 mccormick1[119]: - u[119] + r[119] <= 0
 mccormick2[0]: - x[0] + r[0] <= 0
 mccormick2[1]: - x[1] + r[1] <= 0
 mccormick2[2]: - x[2] + r[2] <= 0
 mccormick2[3]: - x[3] + r[3] <= 0
 mccormick2[4]: - x[4] + r[4] <= 0
 mccormick2[5]: - x[5] + r[5] <= 0
 mccormick2[6]: - x[6] + r[6] <= 0
 mccormick2[7]: - x[7] + r[7] <= 0
 mccormick2[8]: - x[8] + r[8] <= 0
 mccormick2[9]: - x[9] + r[9] <= 0
 mccormick2[10]: - x[10] + r[10] <= 0
 mccormick2[11]: - x[11] + r[11] <= 0
 mccormick2[12]: - x[12] + r[12] <= 0
 mccormick2[13]: - x[13] + r[13] <= 0
 mccormick2[14]: - x[14] + r[14] <= 0
 mccormick2[15]: - x[15] + r[15] <= 0
 mccormick2[16]: - x[16] + r[16] <= 0
 mccormick2[17]: - x[17] + r[17] <= 0
 mccormick2[18]: - x[18] + r[18] <= 0
 mccormick2[19]: - x[19] + r[19] <= 0
 mccormick2[20]: - x[20] + r[20] <= 0
 mccormick2[21]: - x[21] + r[21] <= 0
 mccormick2[22]: - x[22] + r[22] <= 0
 mccormick2[23]: - x[23] + r[23] <= 0
 mccormick2[24]: - x[24] + r[24] <= 0
 mccormick2[25]: - x[25] + r[25] <= 0
 mccormick2[26]: - x[26] + r[26] <= 0
 mccormick2[27]: - x[27] + r[27] <= 0
 mccormick2[28]: - x[28] + r[28] <= 0
 mccormick2[29]: - x[29] + r[29] <= 0
 mccormick2[30]: - x[30] + r[30] <= 0
 mccormick2[31]: - x[31] + r[31] <= 0
 mccormick2[32]: - x[32] + r[32] <= 0
 mccormick2[33]: - x[33] + r[33] <= 0
 mccormick2[34]: - x[34] + r[34] <= 0
 mccormick2[35]: - x[35] + r[35] <= 0
 mccormick2[36]: - x[36] + r[36] <= 0
 mccormick2[37]: - x[37] + r[37] <= 0
 mccormick2[38]: - x[38] + r[38] <= 0
 mccormick2[39]: - x[39] + r[39] <= 0
 mccormick2[40]: - x[40] + r[40] <= 0
 mccormick2[41]: - x[41] + r[41] <= 0
 mccormick2[42]: - x[42] + r[42] <= 0
 mccormick2[43]: - x[43] + r[43] <= 0
 mccormick2[44]: - x[44] + r[44] <= 0
 mccormick2[45]: - x[45] + r[45] <= 0
 mccormick2[46]: - x[46] + r[46] <= 0
 mccormick2[47]: - x[47] + r[47] <= 0
 mccormick2[48]: - x[48] + r[48] <= 0
 mccormick2[49]: - x[49] + r[49] <= 0
 mccormick2[50]: - x[50] + r[50] <= 0
 mccormick2[51]: - x[51] + r[51] <= 0
 mccormick2[52]: - x[52] + r[52] <= 0
 mccormick2[53]: - x[53] + r[53] <= 0
 mccormick2[54]: - x[54] + r[54] <= 0
 mccormick2[55]: - x[55] + r[55] <= 0
 mccormick2[56]: - x[56] + r[56] <= 0
 mccormick2[57]: - x[57] + r[57] <= 0
 mccormick2[58]: - x[58] + r[58] <= 0
 mccormick2[59]: - x[59] + r[59] <= 0
 mccormick2[60]: - x[60] + r[60] <= 0
 mccormick2[61]: - x[61] + r[61] <= 0
 mccormick2[62]: - x[62] + r[62] <= 0
 mccormick2[63]: - x[63] + r[63] <= 0
 mccormick2[64]: - x[64] + r[64] <= 0
 mccormick2[65]: - x[65] + r[65] <= 0
 mccormick2[66]: - x[66] + r[66] <= 0
 mccormick2[67]: - x[67] + r[67] <= 0
 mccormick2[68]: - x[68] + r[68] <= 0
 mccormick2[69]: - x[69] + r[69] <= 0
 mccormick2[70]: - x[70] + r[70] <= 0
 mccormick2[71]: - x[71] + r[71] <= 0
 mccormick2[72]: - x[72] + r[72] <= 0
 mccormick2[73]: - x[73] + r[73] <= 0
 mccormick2[74]: - x[74] + r[74] <= 0
 mccormick2[75]: - x[75] + r[75] <= 0
 mccormick2[76]: - x[76] + r[76] <= 0
 mccormick2[77]: - x[77] + r[77] <= 0
 mccormick2[78]: - x[78] + r[78] <= 0
 mccormick2[79]: - x[79] + r[79] <= 0
 mccormick2[80]: - x[80] + r[80] <= 0
 mccormick2[81]: - x[81] + r[81] <= 0
 mccormick2[82]: - x[82] + r[82] <= 0
 mccormick2[83]: - x[83] + r[83] <= 0
 mccormick2[84]: - x[84] + r[84] <= 0
 mccormick2[85]: - x[85] + r[85] <= 0
 mccormick2[86]: - x[86] + r[86] <= 0
 mccormick2[87]: - x[87] + r[87] <= 0
 mccormick2[88]: - x[88] + r[88] <= 0
 mccormick2[89]: - x[89] + r[89] <= 0
 mccormick2[90]: - x[90] + r[90] <= 0
 mccormick2[91]: - x[91] + r[91] <= 0
 mccormick2[92]: - x[92] + r[92] <= 0
 mccormick2[93]: - x[93] + r[93] <= 0
 mccormick2[94]: - x[94] + r[94] <= 0
 mccormick2[95]: - x[95] + r[95] <= 0
 mccormick2[96]: - x[96] + r[96] <= 0
 mccormick2[97]: - x[97] + r[97] <= 0
 mccormick2[98]: - x[98] + r[98] <= 0
 mccormick2[99]: - x[99] + r[99] <= 0
 mccormick2[100]: - x[100] + r[100] <= 0
 mccormick2[101]: - x[101] + r[101] <= 0
 mccormick2[102]: - x[102] + r[102] <= 0
 mccormick2[103]: - x[103] + r[103] <= 0
 mccormick2[104]: - x[104] + r[104] <= 0
 mccormick2[105]: - x[105] + r[105] <= 0
 mccormick2[106]: - x[106] + r[106] <= 0
 mccormick2[107]: - x[107] + r[107] <= 0
 mccormick2[108]: - x[108] + r[108] <= 0
 mccormick2[109]: - x[109] + r[109] <= 0
 mccormick2[110]: - x[110] + r[110] <= 0
 mccormick2[111]: - x[111] + r[111] <= 0
 mccormick2[112]: - x[112] + r[112] <= 0
 mccormick2[113]: - x[113] + r[113] <= 0
 mccormick2[114]: - x[114] + r[114] <= 0
 mccormick2[115]: - x[115] + r[115] <= 0
 mccormick2[116]: - x[116] + r[116] <= 0
 mccormick2[117]: - x[117] + r[117] <= 0
 mccormick2[118]: - x[118] + r[118] <= 0
 mccormick2[119]: - x[119] + r[119] <= 0
 mccormick3[0]: x[0] + u[0] - r[0] <= 1
 mccormick3[1]: x[1] + u[1] - r[1] <= 1
 mccormick3[2]: x[2] + u[2] - r[2] <= 1
 mccormick3[3]: x[3] + u[3] - r[3] <= 1
 mccormick3[4]: x[4] + u[4] - r[4] <= 1
 mccormick3[5]: x[5] + u[5] - r[5] <= 1
 mccormick3[6]: x[6] + u[6] - r[6] <= 1
 mccormick3[7]: x[7] + u[7] - r[7] <= 1
 mccormick3[8]: x[8] + u[8] - r[8] <= 1
 mccormick3[9]: x[9] + u[9] - r[9] <= 1
 mccormick3[10]: x[10] + u[10] - r[10] <= 1
 mccormick3[11]: x[11] + u[11] - r[11] <= 1
 mccormick3[12]: x[12] + u[12] - r[12] <= 1
 mccormick3[13]: x[13] + u[13] - r[13] <= 1
 mccormick3[14]: x[14] + u[14] - r[14] <= 1
 mccormick3[15]: x[15] + u[15] - r[15] <= 1
 mccormick3[16]: x[16] + u[16] - r[16] <= 1
 mccormick3[17]: x[17] + u[17] - r[17] <= 1
 mccormick3[18]: x[18] + u[18] - r[18] <= 1
 mccormick3[19]: x[19] + u[19] - r[19] <= 1
 mccormick3[20]: x[20] + u[20] - r[20] <= 1
 mccormick3[21]: x[21] + u[21] - r[21] <= 1
 mccormick3[22]: x[22] + u[22] - r[22] <= 1
 mccormick3[23]: x[23] + u[23] - r[23] <= 1
 mccormick3[24]: x[24] + u[24] - r[24] <= 1
 mccormick3[25]: x[25] + u[25] - r[25] <= 1
 mccormick3[26]: x[26] + u[26] - r[26] <= 1
 mccormick3[27]: x[27] + u[27] - r[27] <= 1
 mccormick3[28]: x[28] + u[28] - r[28] <= 1
 mccormick3[29]: x[29] + u[29] - r[29] <= 1
 mccormick3[30]: x[30] + u[30] - r[30] <= 1
 mccormick3[31]: x[31] + u[31] - r[31] <= 1
 mccormick3[32]: x[32] + u[32] - r[32] <= 1
 mccormick3[33]: x[33] + u[33] - r[33] <= 1
 mccormick3[34]: x[34] + u[34] - r[34] <= 1
 mccormick3[35]: x[35] + u[35] - r[35] <= 1
 mccormick3[36]: x[36] + u[36] - r[36] <= 1
 mccormick3[37]: x[37] + u[37] - r[37] <= 1
 mccormick3[38]: x[38] + u[38] - r[38] <= 1
 mccormick3[39]: x[39] + u[39] - r[39] <= 1
 mccormick3[40]: x[40] + u[40] - r[40] <= 1
 mccormick3[41]: x[41] + u[41] - r[41] <= 1
 mccormick3[42]: x[42] + u[42] - r[42] <= 1
 mccormick3[43]: x[43] + u[43] - r[43] <= 1
 mccormick3[44]: x[44] + u[44] - r[44] <= 1
 mccormick3[45]: x[45] + u[45] - r[45] <= 1
 mccormick3[46]: x[46] + u[46] - r[46] <= 1
 mccormick3[47]: x[47] + u[47] - r[47] <= 1
 mccormick3[48]: x[48] + u[48] - r[48] <= 1
 mccormick3[49]: x[49] + u[49] - r[49] <= 1
 mccormick3[50]: x[50] + u[50] - r[50] <= 1
 mccormick3[51]: x[51] + u[51] - r[51] <= 1
 mccormick3[52]: x[52] + u[52] - r[52] <= 1
 mccormick3[53]: x[53] + u[53] - r[53] <= 1
 mccormick3[54]: x[54] + u[54] - r[54] <= 1
 mccormick3[55]: x[55] + u[55] - r[55] <= 1
 mccormick3[56]: x[56] + u[56] - r[56] <= 1
 mccormick3[57]: x[57] + u[57] - r[57] <= 1
 mccormick3[58]: x[58] + u[58] - r[58] <= 1
 mccormick3[59]: x[59] + u[59] - r[59] <= 1
 mccormick3[60]: x[60] + u[60] - r[60] <= 1
 mccormick3[61]: x[61] + u[61] - r[61] <= 1
 mccormick3[62]: x[62] + u[62] - r[62] <= 1
 mccormick3[63]: x[63] + u[63] - r[63] <= 1
 mccormick3[64]: x[64] + u[64] - r[64] <= 1
 mccormick3[65]: x[65] + u[65] - r[65] <= 1
 mccormick3[66]: x[66] + u[66] - r[66] <= 1
 mccormick3[67]: x[67] + u[67] - r[67] <= 1
 mccormick3[68]: x[68] + u[68] - r[68] <= 1
 mccormick3[69]: x[69] + u[69] - r[69] <= 1
 mccormick3[70]: x[70] + u[70] - r[70] <= 1
 mccormick3[71]: x[71] + u[71] - r[71] <= 1
 mccormick3[72]: x[72] + u[72] - r[72] <= 1
 mccormick3[73]: x[73] + u[73] - r[73] <= 1
 mccormick3[74]: x[74] + u[74] - r[74] <= 1
 mccormick3[75]: x[75] + u[75] - r[75] <= 1
 mccormick3[76]: x[76] + u[76] - r[76] <= 1
 mccormick3[77]: x[77] + u[77] - r[77] <= 1
 mccormick3[78]: x[78] + u[78] - r[78] <= 1
 mccormick3[79]: x[79] + u[79] - r[79] <= 1
 mccormick3[80]: x[80] + u[80] - r[80] <= 1
 mccormick3[81]: x[81] + u[81] - r[81] <= 1
 mccormick3[82]: x[82] + u[82] - r[82] <= 1
 mccormick3[83]: x[83] + u[83] - r[83] <= 1
 mccormick3[84]: x[84] + u[84] - r[84] <= 1
 mccormick3[85]: x[85] + u[85] - r[85] <= 1
 mccormick3[86]: x[86] + u[86] - r[86] <= 1
 mccormick3[87]: x[87] + u[87] - r[87] <= 1
 mccormick3[88]: x[88] + u[88] - r[88] <= 1
 mccormick3[89]: x[89] + u[89] - r[89] <= 1
 mccormick3[90]: x[90] + u[90] - r[90] <= 1
 mccormick3[91]: x[91] + u[91] - r[91] <= 1
 mccormick3[92]: x[92] + u[92] - r[92] <= 1
 mccormick3[93]: x[93] + u[93] - r[93] <= 1
 mccormick3[94]: x[94] + u[94] - r[94] <= 1
 mccormick3[95]: x[95] + u[95] - r[95] <= 1
 mccormick3[96]: x[96] + u[96] - r[96] <= 1
 mccormick3[97]: x[97] + u[97] - r[97] <= 1
 mccormick3[98]: x[98] + u[98] - r[98] <= 1
 mccormick3[99]: x[99] + u[99] - r[99] <= 1
 mccormick3[100]: x[100] + u[100] - r[100] <= 1
 mccormick3[101]: x[101] + u[101] - r[101] <= 1
 mccormick3[102]: x[102] + u[102] - r[102] <= 1
 mccormick3[103]: x[103] + u[103] - r[103] <= 1
 mccormick3[104]: x[104] + u[104] - r[104] <= 1
 mccormick3[105]: x[105] + u[105] - r[105] <= 1
 mccormick3[106]: x[106] + u[106] - r[106] <= 1
 mccormick3[107]: x[107] + u[107] - r[107] <= 1
 mccormick3[108]: x[108] + u[108] - r[108] <= 1
 mccormick3[109]: x[109] + u[109] - r[109] <= 1
 mccormick3[110]: x[110] + u[110] - r[110] <= 1
 mccormick3[111]: x[111] + u[111] - r[111] <= 1
 mccormick3[112]: x[112] + u[112] - r[112] <= 1
 mccormick3[113]: x[113] + u[113] - r[113] <= 1
 mccormick3[114]: x[114] + u[114] - r[114] <= 1
 mccormick3[115]: x[115] + u[115] - r[115] <= 1
 mccormick3[116]: x[116] + u[116] - r[116] <= 1
 mccormick3[117]: x[117] + u[117] - r[117] <= 1
 mccormick3[118]: x[118] + u[118] - r[118] <= 1
 mccormick3[119]: x[119] + u[119] - r[119] <= 1
Bounds
Binaries
 x[0] x[1] x[2] x[3] x[4] x[5] x[6] x[7] x[8] x[9] x[10] x[11] x[12] x[13]
 x[14] x[15] x[16] x[17] x[18] x[19] x[20] x[21] x[22] x[23] x[24] x[25]
 x[26] x[27] x[28] x[29] x[30] x[31] x[32] x[33] x[34] x[35] x[36] x[37]
 x[38] x[39] x[40] x[41] x[42] x[43] x[44] x[45] x[46] x[47] x[48] x[49]
 x[50] x[51] x[52] x[53] x[54] x[55] x[56] x[57] x[58] x[59] x[60] x[61]
 x[62] x[63] x[64] x[65] x[66] x[67] x[68] x[69] x[70] x[71] x[72] x[73]
 x[74] x[75] x[76] x[77] x[78] x[79] x[80] x[81] x[82] x[83] x[84] x[85]
 x[86] x[87] x[88] x[89] x[90] x[91] x[92] x[93] x[94] x[95] x[96] x[97]
 x[98] x[99] x[100] x[101] x[102] x[103] x[104] x[105] x[106] x[107] x[108]
 x[109] x[110] x[111] x[112] x[113] x[114] x[115] x[116] x[117] x[118]
 x[119] u[0] u[1] u[2] u[3] u[4] u[5] u[6] u[7] u[8] u[9] u[10] u[11] u[12]
 u[13] u[14] u[15] u[16] u[17] u[18] u[19] u[20] u[21] u[22] u[23] u[24]
 u[25] u[26] u[27] u[28] u[29] u[30] u[31] u[32] u[33] u[34] u[35] u[36]
 u[37] u[38] u[39] u[40] u[41] u[42] u[43] u[44] u[45] u[46] u[47] u[48]
 u[49] u[50] u[51] u[52] u[53] u[54] u[55] u[56] u[57] u[58] u[59] u[60]
 u[61] u[62] u[63] u[64] u[65] u[66] u[67] u[68] u[69] u[70] u[71] u[72]
 u[73] u[74] u[75] u[76] u[77] u[78] u[79] u[80] u[81] u[82] u[83] u[84]
 u[85] u[86] u[87] u[88] u[89] u[90] u[91] u[92] u[93] u[94] u[95] u[96]
 u[97] u[98] u[99] u[100] u[101] u[102] u[103] u[104] u[105] u[106] u[107]
 u[108] u[109] u[110] u[111] u[112] u[113] u[114] u[115] u[116] u[117]
 u[118] u[119] r[0] r[1] r[2] r[3] r[4] r[5] r[6] r[7] r[8] r[9] r[10]
 r[11] r[12] r[13] r[14] r[15] r[16] r[17] r[18] r[19] r[20] r[21] r[22]
 r[23] r[24] r[25] r[26] r[27] r[28] r[29] r[30] r[31] r[32] r[33] r[34]
 r[35] r[36] r[37] r[38] r[39] r[40] r[41] r[42] r[43] r[44] r[45] r[46]
 r[47] r[48] r[49] r[50] r[51] r[52] r[53] r[54] r[55] r[56] r[57] r[58]
 r[59] r[60] r[61] r[62] r[63] r[64] r[65] r[66] r[67] r[68] r[69] r[70]
 r[71] r[72] r[73] r[74] r[75] r[76] r[77] r[78] r[79] r[80] r[81] r[82]
 r[83] r[84] r[85] r[86] r[87] r[88] r[89] r[90] r[91] r[92] r[93] r[94]
 r[95] r[96] r[97] r[98] r[99] r[100] r[101] r[102] r[103] r[104] r[105]
 r[106] r[107] r[108] r[109] r[110] r[111] r[112] r[113] r[114] r[115]
 r[116] r[117] r[118] r[119]
End
